c turning on binary mode checking
c parsing input formula with 259840 variables and 1039934 clauses
c finished parsing, read 3150035 bytes from proof file
c detected empty clause; start verification via backward checking
c 2829 of 1039934 clauses in core                            
c 928 of 124006 lemmas in core using 14446 resolution steps
c 0 RAT lemmas in core; 48 redundant literals in core lemmas
s VERIFIED
c verification time: 1.252 seconds
